c ind 1 2 3 4 5 6 7 8 9 10 11 12 13 14 15 16 17 18 19 20 21 0
p cnf 196 306               
-2 -1 -22 0
22 -26 0
-1 23 0
-2 23 0
1 2 -23 0
-23 -3 -24 0
24 -26 0
3 23 -25 0
25 -26 0
26 -57 0
-5 -4 -27 0
27 -31 0
-4 28 0
-5 28 0
4 5 -28 0
-28 -6 -29 0
29 -31 0
6 28 -30 0
30 -31 0
31 -57 0
-8 -7 -32 0
32 -36 0
-7 33 0
-8 33 0
7 8 -33 0
-33 -9 -34 0
34 -36 0
9 33 -35 0
35 -36 0
36 -57 0
-11 -10 -37 0
37 -41 0
-10 38 0
-11 38 0
10 11 -38 0
-38 -12 -39 0
39 -41 0
12 38 -40 0
40 -41 0
41 -57 0
-14 -13 -42 0
42 -46 0
-13 43 0
-14 43 0
13 14 -43 0
-43 -15 -44 0
44 -46 0
15 43 -45 0
45 -46 0
46 -57 0
-17 -16 -47 0
47 -51 0
-16 48 0
-17 48 0
16 17 -48 0
-48 -18 -49 0
49 -51 0
18 48 -50 0
50 -51 0
51 -57 0
-20 -19 -52 0
52 -56 0
-19 53 0
-20 53 0
19 20 -53 0
-53 -21 -54 0
54 -56 0
21 53 -55 0
55 -56 0
56 -57 0
57 -140 0
13 130 0
-16 130 0
14 131 0
-17 131 0
15 132 0
-18 132 0
-130 -131 -132 133 0
16 134 0
-13 134 0
17 135 0
-14 135 0
18 136 0
-15 136 0
-134 -135 -136 137 0
-133 -137 138 0
-138 -139 0
10 121 0
-16 121 0
11 122 0
-17 122 0
12 123 0
-18 123 0
-121 -122 -123 124 0
16 125 0
-10 125 0
17 126 0
-11 126 0
18 127 0
-12 127 0
-125 -126 -127 128 0
-124 -128 129 0
-129 -139 0
10 112 0
-13 112 0
11 113 0
-14 113 0
12 114 0
-15 114 0
-112 -113 -114 115 0
13 116 0
-10 116 0
14 117 0
-11 117 0
15 118 0
-12 118 0
-116 -117 -118 119 0
-115 -119 120 0
-120 -139 0
10 103 0
-7 103 0
11 104 0
-8 104 0
12 105 0
-9 105 0
-103 -104 -105 106 0
7 107 0
-10 107 0
8 108 0
-11 108 0
9 109 0
-12 109 0
-107 -108 -109 110 0
-106 -110 111 0
-111 -139 0
7 94 0
-13 94 0
8 95 0
-14 95 0
9 96 0
-15 96 0
-94 -95 -96 97 0
13 98 0
-7 98 0
14 99 0
-8 99 0
15 100 0
-9 100 0
-98 -99 -100 101 0
-97 -101 102 0
-102 -139 0
4 85 0
-10 85 0
5 86 0
-11 86 0
6 87 0
-12 87 0
-85 -86 -87 88 0
10 89 0
-4 89 0
11 90 0
-5 90 0
12 91 0
-6 91 0
-89 -90 -91 92 0
-88 -92 93 0
-93 -139 0
4 76 0
-7 76 0
5 77 0
-8 77 0
6 78 0
-9 78 0
-76 -77 -78 79 0
7 80 0
-4 80 0
8 81 0
-5 81 0
9 82 0
-6 82 0
-80 -81 -82 83 0
-79 -83 84 0
-84 -139 0
1 67 0
-10 67 0
2 68 0
-11 68 0
3 69 0
-12 69 0
-67 -68 -69 70 0
10 71 0
-1 71 0
11 72 0
-2 72 0
12 73 0
-3 73 0
-71 -72 -73 74 0
-70 -74 75 0
-75 -139 0
1 58 0
-4 58 0
2 59 0
-5 59 0
3 60 0
-6 60 0
-58 -59 -60 61 0
4 62 0
-1 62 0
5 63 0
-2 63 0
6 64 0
-3 64 0
-62 -63 -64 65 0
-61 -65 66 0
-66 -139 0
139 -140 0
-1 2 -141 0
141 -167 0
-1 -2 142 0
1 2 142 0
-2 2 142 0
-4 5 -143 0
-142 143 -144 0
144 -167 0
-4 -5 145 0
4 5 145 0
-5 5 145 0
-142 -145 146 0
-7 8 -147 0
-146 147 -148 0
148 -167 0
-7 -8 149 0
7 8 149 0
-8 8 149 0
-146 -149 150 0
-10 11 -151 0
-150 151 -152 0
152 -167 0
-10 -11 153 0
10 11 153 0
-11 11 153 0
-150 -153 154 0
-13 14 -155 0
-154 155 -156 0
156 -167 0
-13 -14 157 0
13 14 157 0
-14 14 157 0
-154 -157 158 0
-16 17 -159 0
-158 159 -160 0
160 -167 0
-16 -17 161 0
16 17 161 0
-17 17 161 0
-158 -161 162 0
-19 20 -163 0
-162 163 -164 0
164 -167 0
167 -195 0
-2 3 -168 0
168 -194 0
-2 -3 169 0
2 3 169 0
-3 3 169 0
-5 6 -170 0
-169 170 -171 0
171 -194 0
-5 -6 172 0
5 6 172 0
-6 6 172 0
-169 -172 173 0
-8 9 -174 0
-173 174 -175 0
175 -194 0
-8 -9 176 0
8 9 176 0
-9 9 176 0
-173 -176 177 0
-11 12 -178 0
-177 178 -179 0
179 -194 0
-11 -12 180 0
11 12 180 0
-12 12 180 0
-177 -180 181 0
-14 15 -182 0
-181 182 -183 0
183 -194 0
-14 -15 184 0
14 15 184 0
-15 15 184 0
-181 -184 185 0
-17 18 -186 0
-185 186 -187 0
187 -194 0
-17 -18 188 0
17 18 188 0
-18 18 188 0
-185 -188 189 0
-20 21 -190 0
-189 190 -191 0
191 -194 0
194 -195 0
140 0
195 0
